!- Windows Line endings 

Version,
    8.9;                      !- Version Identifier

SIMULATIONCONTROL,
    Yes,                      !- Do Zone Sizing Calculation
    Yes,                      !- Do System Sizing Calculation
    Yes,                      !- Do Plant Sizing Calculation
    Yes,                      !- Run Simulation for Sizing Periods
    Yes,                      !- Run Simulation for Weather File Run Periods
    No,                       !- Do HVAC Sizing Simulation for Sizing Periods
    1;                        !- Maximum Number of HVAC Sizing Simulation Passes

Building,
    None,                     !- Name
    0,                        !- North Axis
    Suburbs,                  !- Terrain
    0.04,                     !- Loads Convergence Tolerance Value
    0.4,                      !- Temperature Convergence Tolerance Value
    FullInteriorAndExterior,    !- Solar Distribution
    25,                       !- Maximum Number of Warmup Days
    6;                        !- Minimum Number of Warmup Days

Timestep,
    4;                        !- Number of Timesteps per Hour

Site:Location,
    DENVER_STAPLETON_CO_USA_WMO_724690,    !- Name
    39.77,                    !- Latitude
    -104.87,                  !- Longitude
    -7,                       !- Time Zone
    1611;                     !- Elevation

SizingPeriod:DesignDay,
    DENVER_STAPLETON Ann Htg 99.6% Condns DB,    !- Name
    12,                       !- Month
    21,                       !- Day of Month
    WinterDesignDay,          !- Day Type
    -20,                      !- Maximum DryBulb Temperature
    0,                        !- Daily DryBulb Temperature Range
    ,                         !- DryBulb Temperature Range Modifier Type
    ,                         !- DryBulb Temperature Range Modifier Day Schedule Name
    Wetbulb,                  !- Humidity Condition Type
    -20,                      !- Wetbulb or DewPoint at Maximum DryBulb
    ,                         !- Humidity Condition Day Schedule Name
    ,                         !- Humidity Ratio at Maximum DryBulb
    ,                         !- Enthalpy at Maximum DryBulb
    ,                         !- Daily WetBulb Temperature Range
    83411,                    !- Barometric Pressure
    2.3,                      !- Wind Speed
    180,                      !- Wind Direction
    No,                       !- Rain Indicator
    No,                       !- Snow Indicator
    No,                       !- Daylight Saving Time Indicator
    ASHRAEClearSky,           !- Solar Model Indicator
    ,                         !- Beam Solar Day Schedule Name
    ,                         !- Diffuse Solar Day Schedule Name
    ,                         !- ASHRAE Clear Sky Optical Depth for Beam Irradiance taub
    ,                         !- ASHRAE Clear Sky Optical Depth for Diffuse Irradiance taud
    0;                        !- Sky Clearness

SizingPeriod:DesignDay,
    DENVER_STAPLETON Ann Clg .4% Condns DB=>MWB,    !- Name
    7,                        !- Month
    21,                       !- Day of Month
    SummerDesignDay,          !- Day Type
    34.1,                     !- Maximum DryBulb Temperature
    15.2,                     !- Daily DryBulb Temperature Range
    ,                         !- DryBulb Temperature Range Modifier Type
    ,                         !- DryBulb Temperature Range Modifier Day Schedule Name
    Wetbulb,                  !- Humidity Condition Type
    15.8,                     !- Wetbulb or DewPoint at Maximum DryBulb
    ,                         !- Humidity Condition Day Schedule Name
    ,                         !- Humidity Ratio at Maximum DryBulb
    ,                         !- Enthalpy at Maximum DryBulb
    ,                         !- Daily WetBulb Temperature Range
    83411,                    !- Barometric Pressure
    4,                        !- Wind Speed
    120,                      !- Wind Direction
    No,                       !- Rain Indicator
    No,                       !- Snow Indicator
    No,                       !- Daylight Saving Time Indicator
    ASHRAEClearSky,           !- Solar Model Indicator
    ,                         !- Beam Solar Day Schedule Name
    ,                         !- Diffuse Solar Day Schedule Name
    ,                         !- ASHRAE Clear Sky Optical Depth for Beam Irradiance taub
    ,                         !- ASHRAE Clear Sky Optical Depth for Diffuse Irradiance taud
    1;                        !- Sky Clearness

RunPeriod,
    ,                         !- Name
    1,                        !- Begin Month
    1,                        !- Begin Day of Month
    12,                       !- End Month
    31,                       !- End Day of Month
    Tuesday,                  !- Day of Week for Start Day
    Yes,                      !- Use Weather File Holidays and Special Days
    Yes,                      !- Use Weather File Daylight Saving Period
    No,                       !- Apply Weekend Holiday Rule
    Yes,                      !- Use Weather File Rain Indicators
    Yes;                      !- Use Weather File Snow Indicators

MATERIAL,
    OpaqueWall_Mat,           !- Name
    MediumRough,              !- Roughness
    0.2,                      !- Thickness
    0.1,                      !- Conductivity
    1800,                     !- Density
    900,                      !- Specific Heat
    0.9,                      !- Thermal Absorptance
    0.7,                      !- Solar Absorptance
    0.7;                      !- Visible Absorptance

MATERIAL,
    OpaqueRoof_Mat,           !- Name
    MediumRough,              !- Roughness
    0.25,                     !- Thickness
    0.8,                      !- Conductivity
    2000,                     !- Density
    900,                      !- Specific Heat
    0.9,                      !- Thermal Absorptance
    0.7,                      !- Solar Absorptance
    0.7;                      !- Visible Absorptance

MATERIAL,
    OpaqueFloor_Mat,          !- Name
    MediumRough,              !- Roughness
    0.25,                     !- Thickness
    1.4,                      !- Conductivity
    2200,                     !- Density
    900,                      !- Specific Heat
    0.9,                      !- Thermal Absorptance
    0.7,                      !- Solar Absorptance
    0.7;                      !- Visible Absorptance

WINDOWMATERIAL:SIMPLEGLAZINGSYSTEM,
    GLZ_Simple_3Wm2K_SHGC60_VT70,    !- Name
    3,                        !- UFactor
    0.6,                      !- Solar Heat Gain Coefficient
    0.7;                      !- Visible Transmittance

CONSTRUCTION,
    WIN_Simple_Clear,         !- Name
    GLZ_Simple_3Wm2K_SHGC60_VT70;    !- Outside Layer

CONSTRUCTION,
    WALL_Const,               !- Name
    OpaqueWall_Mat;           !- Outside Layer

CONSTRUCTION,
    ROOF_Const,               !- Name
    OpaqueRoof_Mat;           !- Outside Layer

CONSTRUCTION,
    FLOOR_Const,              !- Name
    OpaqueFloor_Mat;          !- Outside Layer

GlobalGeometryRules,
    UpperLeftCorner,          !- Starting Vertex Position
    CounterClockWise,         !- Vertex Entry Direction
    Relative;                 !- Coordinate System

ZONE,
    Block TestBlock Storey 0,    !- Name
    0,                        !- Direction of Relative North
    0,                        !- X Origin
    0,                        !- Y Origin
    0,                        !- Z Origin
    1,                        !- Type
    1,                        !- Multiplier
    autocalculate,            !- Ceiling Height
    autocalculate,            !- Volume
    autocalculate,            !- Floor Area
    ,                         !- Zone Inside Convection Algorithm
    ,                         !- Zone Outside Convection Algorithm
    Yes;                      !- Part of Total Floor Area

ZONE,
    Block TestBlock Storey 1,    !- Name
    0,                        !- Direction of Relative North
    0,                        !- X Origin
    0,                        !- Y Origin
    0,                        !- Z Origin
    1,                        !- Type
    1,                        !- Multiplier
    autocalculate,            !- Ceiling Height
    autocalculate,            !- Volume
    autocalculate,            !- Floor Area
    ,                         !- Zone Inside Convection Algorithm
    ,                         !- Zone Outside Convection Algorithm
    Yes;                      !- Part of Total Floor Area

BUILDINGSURFACE:DETAILED,
    Block TestBlock Storey 0 Wall 0001,    !- Name
    wall,                     !- Surface Type
    WALL_Const,               !- Construction Name
    Block TestBlock Storey 0,    !- Zone Name
    outdoors,                 !- Outside Boundary Condition
    ,                         !- Outside Boundary Condition Object
    SunExposed,               !- Sun Exposure
    WindExposed,              !- Wind Exposure
    autocalculate,            !- View Factor to Ground
    autocalculate,            !- Number of Vertices
    0,                        !- Vertex 1 Xcoordinate
    0,                        !- Vertex 1 Ycoordinate
    4,                        !- Vertex 1 Zcoordinate
    0,                        !- Vertex 2 Xcoordinate
    0,                        !- Vertex 2 Ycoordinate
    0,                        !- Vertex 2 Zcoordinate
    10,                       !- Vertex 3 Xcoordinate
    0,                        !- Vertex 3 Ycoordinate
    0,                        !- Vertex 3 Zcoordinate
    10,                       !- Vertex 4 Xcoordinate
    0,                        !- Vertex 4 Ycoordinate
    4;                        !- Vertex 4 Zcoordinate

BUILDINGSURFACE:DETAILED,
    Block TestBlock Storey 0 Wall 0002,    !- Name
    wall,                     !- Surface Type
    WALL_Const,               !- Construction Name
    Block TestBlock Storey 0,    !- Zone Name
    outdoors,                 !- Outside Boundary Condition
    ,                         !- Outside Boundary Condition Object
    SunExposed,               !- Sun Exposure
    WindExposed,              !- Wind Exposure
    autocalculate,            !- View Factor to Ground
    autocalculate,            !- Number of Vertices
    10,                       !- Vertex 1 Xcoordinate
    0,                        !- Vertex 1 Ycoordinate
    4,                        !- Vertex 1 Zcoordinate
    10,                       !- Vertex 2 Xcoordinate
    0,                        !- Vertex 2 Ycoordinate
    0,                        !- Vertex 2 Zcoordinate
    10,                       !- Vertex 3 Xcoordinate
    10,                       !- Vertex 3 Ycoordinate
    0,                        !- Vertex 3 Zcoordinate
    10,                       !- Vertex 4 Xcoordinate
    10,                       !- Vertex 4 Ycoordinate
    4;                        !- Vertex 4 Zcoordinate

BUILDINGSURFACE:DETAILED,
    Block TestBlock Storey 0 Wall 0003,    !- Name
    wall,                     !- Surface Type
    WALL_Const,               !- Construction Name
    Block TestBlock Storey 0,    !- Zone Name
    outdoors,                 !- Outside Boundary Condition
    ,                         !- Outside Boundary Condition Object
    SunExposed,               !- Sun Exposure
    WindExposed,              !- Wind Exposure
    autocalculate,            !- View Factor to Ground
    autocalculate,            !- Number of Vertices
    10,                       !- Vertex 1 Xcoordinate
    10,                       !- Vertex 1 Ycoordinate
    4,                        !- Vertex 1 Zcoordinate
    10,                       !- Vertex 2 Xcoordinate
    10,                       !- Vertex 2 Ycoordinate
    0,                        !- Vertex 2 Zcoordinate
    0,                        !- Vertex 3 Xcoordinate
    10,                       !- Vertex 3 Ycoordinate
    0,                        !- Vertex 3 Zcoordinate
    0,                        !- Vertex 4 Xcoordinate
    10,                       !- Vertex 4 Ycoordinate
    4;                        !- Vertex 4 Zcoordinate

BUILDINGSURFACE:DETAILED,
    Block TestBlock Storey 0 Wall 0004,    !- Name
    wall,                     !- Surface Type
    WALL_Const,               !- Construction Name
    Block TestBlock Storey 0,    !- Zone Name
    outdoors,                 !- Outside Boundary Condition
    ,                         !- Outside Boundary Condition Object
    SunExposed,               !- Sun Exposure
    WindExposed,              !- Wind Exposure
    autocalculate,            !- View Factor to Ground
    autocalculate,            !- Number of Vertices
    0,                        !- Vertex 1 Xcoordinate
    10,                       !- Vertex 1 Ycoordinate
    4,                        !- Vertex 1 Zcoordinate
    0,                        !- Vertex 2 Xcoordinate
    10,                       !- Vertex 2 Ycoordinate
    0,                        !- Vertex 2 Zcoordinate
    0,                        !- Vertex 3 Xcoordinate
    0,                        !- Vertex 3 Ycoordinate
    0,                        !- Vertex 3 Zcoordinate
    0,                        !- Vertex 4 Xcoordinate
    0,                        !- Vertex 4 Ycoordinate
    4;                        !- Vertex 4 Zcoordinate

BUILDINGSURFACE:DETAILED,
    Block TestBlock Storey 0 Floor 0001,    !- Name
    floor,                    !- Surface Type
    FLOOR_Const,              !- Construction Name
    Block TestBlock Storey 0,    !- Zone Name
    ground,                   !- Outside Boundary Condition
    ,                         !- Outside Boundary Condition Object
    NoSun,                    !- Sun Exposure
    NoWind,                   !- Wind Exposure
    autocalculate,            !- View Factor to Ground
    autocalculate,            !- Number of Vertices
    10,                       !- Vertex 1 Xcoordinate
    10,                       !- Vertex 1 Ycoordinate
    0,                        !- Vertex 1 Zcoordinate
    10,                       !- Vertex 2 Xcoordinate
    0,                        !- Vertex 2 Ycoordinate
    0,                        !- Vertex 2 Zcoordinate
    0,                        !- Vertex 3 Xcoordinate
    0,                        !- Vertex 3 Ycoordinate
    0,                        !- Vertex 3 Zcoordinate
    0,                        !- Vertex 4 Xcoordinate
    10,                       !- Vertex 4 Ycoordinate
    0;                        !- Vertex 4 Zcoordinate

BUILDINGSURFACE:DETAILED,
    Block TestBlock Storey 1 Wall 0001,    !- Name
    wall,                     !- Surface Type
    WALL_Const,               !- Construction Name
    Block TestBlock Storey 1,    !- Zone Name
    outdoors,                 !- Outside Boundary Condition
    ,                         !- Outside Boundary Condition Object
    SunExposed,               !- Sun Exposure
    WindExposed,              !- Wind Exposure
    autocalculate,            !- View Factor to Ground
    autocalculate,            !- Number of Vertices
    0,                        !- Vertex 1 Xcoordinate
    0,                        !- Vertex 1 Ycoordinate
    8,                        !- Vertex 1 Zcoordinate
    0,                        !- Vertex 2 Xcoordinate
    0,                        !- Vertex 2 Ycoordinate
    4,                        !- Vertex 2 Zcoordinate
    10,                       !- Vertex 3 Xcoordinate
    0,                        !- Vertex 3 Ycoordinate
    4,                        !- Vertex 3 Zcoordinate
    10,                       !- Vertex 4 Xcoordinate
    0,                        !- Vertex 4 Ycoordinate
    8;                        !- Vertex 4 Zcoordinate

BUILDINGSURFACE:DETAILED,
    Block TestBlock Storey 1 Wall 0002,    !- Name
    wall,                     !- Surface Type
    WALL_Const,               !- Construction Name
    Block TestBlock Storey 1,    !- Zone Name
    outdoors,                 !- Outside Boundary Condition
    ,                         !- Outside Boundary Condition Object
    SunExposed,               !- Sun Exposure
    WindExposed,              !- Wind Exposure
    autocalculate,            !- View Factor to Ground
    autocalculate,            !- Number of Vertices
    10,                       !- Vertex 1 Xcoordinate
    0,                        !- Vertex 1 Ycoordinate
    8,                        !- Vertex 1 Zcoordinate
    10,                       !- Vertex 2 Xcoordinate
    0,                        !- Vertex 2 Ycoordinate
    4,                        !- Vertex 2 Zcoordinate
    10,                       !- Vertex 3 Xcoordinate
    10,                       !- Vertex 3 Ycoordinate
    4,                        !- Vertex 3 Zcoordinate
    10,                       !- Vertex 4 Xcoordinate
    10,                       !- Vertex 4 Ycoordinate
    8;                        !- Vertex 4 Zcoordinate

BUILDINGSURFACE:DETAILED,
    Block TestBlock Storey 1 Wall 0003,    !- Name
    wall,                     !- Surface Type
    WALL_Const,               !- Construction Name
    Block TestBlock Storey 1,    !- Zone Name
    outdoors,                 !- Outside Boundary Condition
    ,                         !- Outside Boundary Condition Object
    SunExposed,               !- Sun Exposure
    WindExposed,              !- Wind Exposure
    autocalculate,            !- View Factor to Ground
    autocalculate,            !- Number of Vertices
    10,                       !- Vertex 1 Xcoordinate
    10,                       !- Vertex 1 Ycoordinate
    8,                        !- Vertex 1 Zcoordinate
    10,                       !- Vertex 2 Xcoordinate
    10,                       !- Vertex 2 Ycoordinate
    4,                        !- Vertex 2 Zcoordinate
    0,                        !- Vertex 3 Xcoordinate
    10,                       !- Vertex 3 Ycoordinate
    4,                        !- Vertex 3 Zcoordinate
    0,                        !- Vertex 4 Xcoordinate
    10,                       !- Vertex 4 Ycoordinate
    8;                        !- Vertex 4 Zcoordinate

BUILDINGSURFACE:DETAILED,
    Block TestBlock Storey 1 Wall 0004,    !- Name
    wall,                     !- Surface Type
    WALL_Const,               !- Construction Name
    Block TestBlock Storey 1,    !- Zone Name
    outdoors,                 !- Outside Boundary Condition
    ,                         !- Outside Boundary Condition Object
    SunExposed,               !- Sun Exposure
    WindExposed,              !- Wind Exposure
    autocalculate,            !- View Factor to Ground
    autocalculate,            !- Number of Vertices
    0,                        !- Vertex 1 Xcoordinate
    10,                       !- Vertex 1 Ycoordinate
    8,                        !- Vertex 1 Zcoordinate
    0,                        !- Vertex 2 Xcoordinate
    10,                       !- Vertex 2 Ycoordinate
    4,                        !- Vertex 2 Zcoordinate
    0,                        !- Vertex 3 Xcoordinate
    0,                        !- Vertex 3 Ycoordinate
    4,                        !- Vertex 3 Zcoordinate
    0,                        !- Vertex 4 Xcoordinate
    0,                        !- Vertex 4 Ycoordinate
    8;                        !- Vertex 4 Zcoordinate

BUILDINGSURFACE:DETAILED,
    Block TestBlock Storey 1 Roof 0001,    !- Name
    roof,                     !- Surface Type
    ROOF_Const,               !- Construction Name
    Block TestBlock Storey 1,    !- Zone Name
    outdoors,                 !- Outside Boundary Condition
    ,                         !- Outside Boundary Condition Object
    SunExposed,               !- Sun Exposure
    WindExposed,              !- Wind Exposure
    autocalculate,            !- View Factor to Ground
    autocalculate,            !- Number of Vertices
    10,                       !- Vertex 1 Xcoordinate
    0,                        !- Vertex 1 Ycoordinate
    8,                        !- Vertex 1 Zcoordinate
    10,                       !- Vertex 2 Xcoordinate
    10,                       !- Vertex 2 Ycoordinate
    8,                        !- Vertex 2 Zcoordinate
    0,                        !- Vertex 3 Xcoordinate
    10,                       !- Vertex 3 Ycoordinate
    8,                        !- Vertex 3 Zcoordinate
    0,                        !- Vertex 4 Xcoordinate
    0,                        !- Vertex 4 Ycoordinate
    8;                        !- Vertex 4 Zcoordinate

BUILDINGSURFACE:DETAILED,
    Block TestBlock Storey 0 Ceiling 0001_1,    !- Name
    ceiling,                  !- Surface Type
    FLOOR_Const,              !- Construction Name
    Block TestBlock Storey 0,    !- Zone Name
    Surface,                  !- Outside Boundary Condition
    Block TestBlock Storey 1 Floor 0001_1,    !- Outside Boundary Condition Object
    NoSun,                    !- Sun Exposure
    NoWind,                   !- Wind Exposure
    autocalculate,            !- View Factor to Ground
    autocalculate,            !- Number of Vertices
    10,                       !- Vertex 1 Xcoordinate
    0,                        !- Vertex 1 Ycoordinate
    4,                        !- Vertex 1 Zcoordinate
    10,                       !- Vertex 2 Xcoordinate
    10,                       !- Vertex 2 Ycoordinate
    4,                        !- Vertex 2 Zcoordinate
    0,                        !- Vertex 3 Xcoordinate
    10,                       !- Vertex 3 Ycoordinate
    4,                        !- Vertex 3 Zcoordinate
    0,                        !- Vertex 4 Xcoordinate
    0,                        !- Vertex 4 Ycoordinate
    4;                        !- Vertex 4 Zcoordinate

BUILDINGSURFACE:DETAILED,
    Block TestBlock Storey 1 Floor 0001_1,    !- Name
    floor,                    !- Surface Type
    FLOOR_Const,              !- Construction Name
    Block TestBlock Storey 1,    !- Zone Name
    Surface,                  !- Outside Boundary Condition
    Block TestBlock Storey 0 Ceiling 0001_1,    !- Outside Boundary Condition Object
    NoSun,                    !- Sun Exposure
    NoWind,                   !- Wind Exposure
    autocalculate,            !- View Factor to Ground
    autocalculate,            !- Number of Vertices
    10,                       !- Vertex 1 Xcoordinate
    10,                       !- Vertex 1 Ycoordinate
    4,                        !- Vertex 1 Zcoordinate
    10,                       !- Vertex 2 Xcoordinate
    0,                        !- Vertex 2 Ycoordinate
    4,                        !- Vertex 2 Zcoordinate
    0,                        !- Vertex 3 Xcoordinate
    0,                        !- Vertex 3 Ycoordinate
    4,                        !- Vertex 3 Zcoordinate
    0,                        !- Vertex 4 Xcoordinate
    10,                       !- Vertex 4 Ycoordinate
    4;                        !- Vertex 4 Zcoordinate

FENESTRATIONSURFACE:DETAILED,
    NorthWin_F1_1,            !- Name
    Window,                   !- Surface Type
    WIN_Simple_Clear,         !- Construction Name
    Block TestBlock Storey 0 Wall 0003,    !- Building Surface Name
    ,                         !- Outside Boundary Condition Object
    autocalculate,            !- View Factor to Ground
    ,                         !- Shading Control Name
    ,                         !- Frame and Divider Name
    1.0,                      !- Multiplier
    autocalculate,            !- Number of Vertices
    9.25,                     !- Vertex 1 Xcoordinate
    10,                       !- Vertex 1 Ycoordinate
    3.5,                      !- Vertex 1 Zcoordinate
    9.25,                     !- Vertex 2 Xcoordinate
    10,                       !- Vertex 2 Ycoordinate
    1,                        !- Vertex 2 Zcoordinate
    0.75,                     !- Vertex 3 Xcoordinate
    10,                       !- Vertex 3 Ycoordinate
    1,                        !- Vertex 3 Zcoordinate
    0.75,                     !- Vertex 4 Xcoordinate
    10,                       !- Vertex 4 Ycoordinate
    3.5;                      !- Vertex 4 Zcoordinate

FENESTRATIONSURFACE:DETAILED,
    EastWin_F1_1,             !- Name
    Window,                   !- Surface Type
    WIN_Simple_Clear,         !- Construction Name
    Block TestBlock Storey 0 Wall 0002,    !- Building Surface Name
    ,                         !- Outside Boundary Condition Object
    autocalculate,            !- View Factor to Ground
    ,                         !- Shading Control Name
    ,                         !- Frame and Divider Name
    1.0,                      !- Multiplier
    autocalculate,            !- Number of Vertices
    10,                       !- Vertex 1 Xcoordinate
    0.75,                     !- Vertex 1 Ycoordinate
    3.5,                      !- Vertex 1 Zcoordinate
    10,                       !- Vertex 2 Xcoordinate
    0.75,                     !- Vertex 2 Ycoordinate
    1,                        !- Vertex 2 Zcoordinate
    10,                       !- Vertex 3 Xcoordinate
    9.25,                     !- Vertex 3 Ycoordinate
    1,                        !- Vertex 3 Zcoordinate
    10,                       !- Vertex 4 Xcoordinate
    9.25,                     !- Vertex 4 Ycoordinate
    3.5;                      !- Vertex 4 Zcoordinate

FENESTRATIONSURFACE:DETAILED,
    SouthWin_F1_1,            !- Name
    Window,                   !- Surface Type
    WIN_Simple_Clear,         !- Construction Name
    Block TestBlock Storey 0 Wall 0001,    !- Building Surface Name
    ,                         !- Outside Boundary Condition Object
    autocalculate,            !- View Factor to Ground
    ,                         !- Shading Control Name
    ,                         !- Frame and Divider Name
    1.0,                      !- Multiplier
    autocalculate,            !- Number of Vertices
    0.75,                     !- Vertex 1 Xcoordinate
    0,                        !- Vertex 1 Ycoordinate
    3.5,                      !- Vertex 1 Zcoordinate
    0.75,                     !- Vertex 2 Xcoordinate
    0,                        !- Vertex 2 Ycoordinate
    1,                        !- Vertex 2 Zcoordinate
    9.25,                     !- Vertex 3 Xcoordinate
    0,                        !- Vertex 3 Ycoordinate
    1,                        !- Vertex 3 Zcoordinate
    9.25,                     !- Vertex 4 Xcoordinate
    0,                        !- Vertex 4 Ycoordinate
    3.5;                      !- Vertex 4 Zcoordinate

FENESTRATIONSURFACE:DETAILED,
    WestWin_F1_1,             !- Name
    Window,                   !- Surface Type
    WIN_Simple_Clear,         !- Construction Name
    Block TestBlock Storey 0 Wall 0004,    !- Building Surface Name
    ,                         !- Outside Boundary Condition Object
    autocalculate,            !- View Factor to Ground
    ,                         !- Shading Control Name
    ,                         !- Frame and Divider Name
    1.0,                      !- Multiplier
    autocalculate,            !- Number of Vertices
    0,                        !- Vertex 1 Xcoordinate
    9.25,                     !- Vertex 1 Ycoordinate
    3.5,                      !- Vertex 1 Zcoordinate
    0,                        !- Vertex 2 Xcoordinate
    9.25,                     !- Vertex 2 Ycoordinate
    1,                        !- Vertex 2 Zcoordinate
    0,                        !- Vertex 3 Xcoordinate
    0.75,                     !- Vertex 3 Ycoordinate
    1,                        !- Vertex 3 Zcoordinate
    0,                        !- Vertex 4 Xcoordinate
    0.75,                     !- Vertex 4 Ycoordinate
    3.5;                      !- Vertex 4 Zcoordinate

FENESTRATIONSURFACE:DETAILED,
    NorthWin_F2_1,            !- Name
    Window,                   !- Surface Type
    WIN_Simple_Clear,         !- Construction Name
    Block TestBlock Storey 1 Wall 0003,    !- Building Surface Name
    ,                         !- Outside Boundary Condition Object
    autocalculate,            !- View Factor to Ground
    ,                         !- Shading Control Name
    ,                         !- Frame and Divider Name
    1.0,                      !- Multiplier
    autocalculate,            !- Number of Vertices
    9.25,                     !- Vertex 1 Xcoordinate
    10,                       !- Vertex 1 Ycoordinate
    7.5,                      !- Vertex 1 Zcoordinate
    9.25,                     !- Vertex 2 Xcoordinate
    10,                       !- Vertex 2 Ycoordinate
    5,                        !- Vertex 2 Zcoordinate
    0.75,                     !- Vertex 3 Xcoordinate
    10,                       !- Vertex 3 Ycoordinate
    5,                        !- Vertex 3 Zcoordinate
    0.75,                     !- Vertex 4 Xcoordinate
    10,                       !- Vertex 4 Ycoordinate
    7.5;                      !- Vertex 4 Zcoordinate

FENESTRATIONSURFACE:DETAILED,
    EastWin_F2_1,             !- Name
    Window,                   !- Surface Type
    WIN_Simple_Clear,         !- Construction Name
    Block TestBlock Storey 1 Wall 0002,    !- Building Surface Name
    ,                         !- Outside Boundary Condition Object
    autocalculate,            !- View Factor to Ground
    ,                         !- Shading Control Name
    ,                         !- Frame and Divider Name
    1.0,                      !- Multiplier
    autocalculate,            !- Number of Vertices
    10,                       !- Vertex 1 Xcoordinate
    0.75,                     !- Vertex 1 Ycoordinate
    7.5,                      !- Vertex 1 Zcoordinate
    10,                       !- Vertex 2 Xcoordinate
    0.75,                     !- Vertex 2 Ycoordinate
    5,                        !- Vertex 2 Zcoordinate
    10,                       !- Vertex 3 Xcoordinate
    9.25,                     !- Vertex 3 Ycoordinate
    5,                        !- Vertex 3 Zcoordinate
    10,                       !- Vertex 4 Xcoordinate
    9.25,                     !- Vertex 4 Ycoordinate
    7.5;                      !- Vertex 4 Zcoordinate

FENESTRATIONSURFACE:DETAILED,
    SouthWin_F2_1,            !- Name
    Window,                   !- Surface Type
    WIN_Simple_Clear,         !- Construction Name
    Block TestBlock Storey 1 Wall 0001,    !- Building Surface Name
    ,                         !- Outside Boundary Condition Object
    autocalculate,            !- View Factor to Ground
    ,                         !- Shading Control Name
    ,                         !- Frame and Divider Name
    1.0,                      !- Multiplier
    autocalculate,            !- Number of Vertices
    0.75,                     !- Vertex 1 Xcoordinate
    0,                        !- Vertex 1 Ycoordinate
    7.5,                      !- Vertex 1 Zcoordinate
    0.75,                     !- Vertex 2 Xcoordinate
    0,                        !- Vertex 2 Ycoordinate
    5,                        !- Vertex 2 Zcoordinate
    9.25,                     !- Vertex 3 Xcoordinate
    0,                        !- Vertex 3 Ycoordinate
    5,                        !- Vertex 3 Zcoordinate
    9.25,                     !- Vertex 4 Xcoordinate
    0,                        !- Vertex 4 Ycoordinate
    7.5;                      !- Vertex 4 Zcoordinate

FENESTRATIONSURFACE:DETAILED,
    WestWin_F2_1,             !- Name
    Window,                   !- Surface Type
    WIN_Simple_Clear,         !- Construction Name
    Block TestBlock Storey 1 Wall 0004,    !- Building Surface Name
    ,                         !- Outside Boundary Condition Object
    autocalculate,            !- View Factor to Ground
    ,                         !- Shading Control Name
    ,                         !- Frame and Divider Name
    1.0,                      !- Multiplier
    autocalculate,            !- Number of Vertices
    0,                        !- Vertex 1 Xcoordinate
    9.25,                     !- Vertex 1 Ycoordinate
    7.5,                      !- Vertex 1 Zcoordinate
    0,                        !- Vertex 2 Xcoordinate
    9.25,                     !- Vertex 2 Ycoordinate
    5,                        !- Vertex 2 Zcoordinate
    0,                        !- Vertex 3 Xcoordinate
    0.75,                     !- Vertex 3 Ycoordinate
    5,                        !- Vertex 3 Zcoordinate
    0,                        !- Vertex 4 Xcoordinate
    0.75,                     !- Vertex 4 Ycoordinate
    7.5;                      !- Vertex 4 Zcoordinate

ZONEHVAC:IDEALLOADSAIRSYSTEM,
    ILS_Block TestBlock Storey 0,    !- Name
    ,                         !- Availability Schedule Name
    Block TestBlock Storey 0_Supply,    !- Zone Supply Air Node Name
    Block TestBlock Storey 0_Exhaust,    !- Zone Exhaust Air Node Name
    ,                         !- System Inlet Air Node Name
    50,                       !- Maximum Heating Supply Air Temperature
    13,                       !- Minimum Cooling Supply Air Temperature
    0.0156,                   !- Maximum Heating Supply Air Humidity Ratio
    0.0077,                   !- Minimum Cooling Supply Air Humidity Ratio
    NoLimit,                  !- Heating Limit
    ,                         !- Maximum Heating Air Flow Rate
    ,                         !- Maximum Sensible Heating Capacity
    NoLimit,                  !- Cooling Limit
    ,                         !- Maximum Cooling Air Flow Rate
    ,                         !- Maximum Total Cooling Capacity
    ,                         !- Heating Availability Schedule Name
    ,                         !- Cooling Availability Schedule Name
    ConstantSensibleHeatRatio,    !- Dehumidification Control Type
    0.7,                      !- Cooling Sensible Heat Ratio
    None,                     !- Humidification Control Type
    ,                         !- Design Specification Outdoor Air Object Name
    ,                         !- Outdoor Air Inlet Node Name
    None,                     !- Demand Controlled Ventilation Type
    NoEconomizer,             !- Outdoor Air Economizer Type
    None,                     !- Heat Recovery Type
    0.70,                     !- Sensible Heat Recovery Effectiveness
    0.65;                     !- Latent Heat Recovery Effectiveness

ZONEHVAC:IDEALLOADSAIRSYSTEM,
    ILS_Block TestBlock Storey 1,    !- Name
    ,                         !- Availability Schedule Name
    Block TestBlock Storey 1_Supply,    !- Zone Supply Air Node Name
    Block TestBlock Storey 1_Exhaust,    !- Zone Exhaust Air Node Name
    ,                         !- System Inlet Air Node Name
    50,                       !- Maximum Heating Supply Air Temperature
    13,                       !- Minimum Cooling Supply Air Temperature
    0.0156,                   !- Maximum Heating Supply Air Humidity Ratio
    0.0077,                   !- Minimum Cooling Supply Air Humidity Ratio
    NoLimit,                  !- Heating Limit
    ,                         !- Maximum Heating Air Flow Rate
    ,                         !- Maximum Sensible Heating Capacity
    NoLimit,                  !- Cooling Limit
    ,                         !- Maximum Cooling Air Flow Rate
    ,                         !- Maximum Total Cooling Capacity
    ,                         !- Heating Availability Schedule Name
    ,                         !- Cooling Availability Schedule Name
    ConstantSensibleHeatRatio,    !- Dehumidification Control Type
    0.7,                      !- Cooling Sensible Heat Ratio
    None,                     !- Humidification Control Type
    ,                         !- Design Specification Outdoor Air Object Name
    ,                         !- Outdoor Air Inlet Node Name
    None,                     !- Demand Controlled Ventilation Type
    NoEconomizer,             !- Outdoor Air Economizer Type
    None,                     !- Heat Recovery Type
    0.70,                     !- Sensible Heat Recovery Effectiveness
    0.65;                     !- Latent Heat Recovery Effectiveness

Output:VariableDictionary,
    Regular;                  !- Key Field

Output:Table:SummaryReports,
    AllSummary;               !- Report 1 Name

OutputControl:Table:Style,
    HTML;                     !- Column Separator

Output:Variable,
    *,                        !- Key Value
    Site Outdoor Air Drybulb Temperature,    !- Variable Name
    Timestep;                 !- Reporting Frequency

Output:Variable,
    *,                        !- Key Value
    Site Outdoor Air Wetbulb Temperature,    !- Variable Name
    Timestep;                 !- Reporting Frequency

Output:Variable,
    *,                        !- Key Value
    Site Outdoor Air Dewpoint Temperature,    !- Variable Name
    Timestep;                 !- Reporting Frequency

Output:Variable,
    *,                        !- Key Value
    Site Solar Azimuth Angle,    !- Variable Name
    Timestep;                 !- Reporting Frequency

Output:Variable,
    *,                        !- Key Value
    Site Solar Altitude Angle,    !- Variable Name
    Timestep;                 !- Reporting Frequency

Output:Variable,
    *,                        !- Key Value
    Site Direct Solar Radiation Rate per Area,    !- Variable Name
    Timestep;                 !- Reporting Frequency

Output:Variable,
    *,                        !- Key Value
    Site Diffuse Solar Radiation Rate per Area,    !- Variable Name
    Timestep;                 !- Reporting Frequency